c Output_time 26.03.2020 18:15:10_+0100 1585242910441788792
c ** Program information **
c program_name                          "QBRG_debug"
c version                               "0.3.20"
c date                                  "25.3.2020"
c gid_id                                "673970833836058123f633335630c185360d632e"
c author                                "Oliver Kullmann"
c url                                   "https://github.com/OKullmann/oklibrary/blob/master/Satisfiability/Transformers/Generators/Random/QBRG.cpp"
c ** Machine information **
c machine_name                          "chyna-Lenovo-G50-70"
c bogomips                              3791.08
c ** Compilation information **
c compiler_version                      "g++ 7.5.0"
c compilation_date                      "Mar_26_2020 11:16:30"
c compilation_options                   "--std=c++17 -pedantic -fmax-errors=5 -Wall -Wextra -g -D_GLIBCXX_DEBUG"
c NDEBUG                                0
c OPTIMIZE                              0
c ** Parameters **
c command-line                          "./QBRG_debug" "a40 e40 a40 40" "162*1,1|2-2,1|3-3,1|4-4,1" "" "1,t" ""
c output                                "QuBlRaGe_160_162_1585242910427932202.qdimacs"
c options                               "filtered,renamed"
c num_quantifier_blocks                 4
c  quantifier_blocks                    1:a1-40 2:e41-80 3:a81-120 4:e121-160
c num_clause-blocks                     1
c  clause-blocks                        162 * {1-40,1,1/2} | {41-80,1,1/2} | {81-120,1,1/2} | {121-160,1,1/2}
c num_e-seeds                           37+2=39
c  e-seeds                              1 0 1 0 5 160 2 40 0 40 1 40 0 40 1 162 4 1 1 1 1 2 2 2 1 1 2 3 3 1 1 2 4 4 1 1 2 1 1585242910427931668
p cnf 155 162
a 1 2 3 4 5 6 7 8 9 10 11 12 13 14 15 16 17 18 19 20 21 22 23 24 25 26 27 28 29 30 31 32 33 34 35 36 37 38 0
e 39 40 41 42 43 44 45 46 47 48 49 50 51 52 53 54 55 56 57 58 59 60 61 62 63 64 65 66 67 68 69 70 71 72 73 74 75 76 77 0
a 78 79 80 81 82 83 84 85 86 87 88 89 90 91 92 93 94 95 96 97 98 99 100 101 102 103 104 105 106 107 108 109 110 111 112 113 114 115 116 0
e 117 118 119 120 121 122 123 124 125 126 127 128 129 130 131 132 133 134 135 136 137 138 139 140 141 142 143 144 145 146 147 148 149 150 151 152 153 154 155 0
-33 61 94 -117 0
12 -57 110 -117 0
21 74 89 117 0
-5 -45 -82 -118 0
9 76 114 -118 0
-3 44 112 118 0
-1 49 80 -119 0
29 46 98 119 0
-16 75 111 119 0
26 77 116 119 0
25 39 113 -120 0
-38 -68 -84 120 0
-30 -44 -111 120 0
-28 77 -84 -121 0
-21 60 96 -121 0
-31 69 -99 -121 0
-31 -67 104 -121 0
-23 73 -102 121 0
20 -40 84 -122 0
1 -69 90 -122 0
18 66 81 122 0
-37 -43 -83 122 0
38 65 99 122 0
-19 -41 -92 -123 0
-13 46 -112 123 0
-26 -62 90 -124 0
9 51 -102 -124 0
-24 48 -104 -124 0
35 -42 93 124 0
20 43 -78 -125 0
-5 -64 95 125 0
-36 77 86 -126 0
8 53 -103 -126 0
-21 -66 -108 -126 0
36 60 -89 126 0
34 47 -90 126 0
6 43 -98 -127 0
23 58 -114 -127 0
-38 -71 115 -127 0
32 75 -94 127 0
-38 46 -88 -128 0
-20 -62 -95 -128 0
-21 73 -103 -128 0
35 -61 -111 -128 0
10 -52 -81 128 0
-21 57 104 -129 0
5 49 105 -129 0
6 -54 -109 -129 0
-1 -64 78 129 0
-38 66 84 129 0
1 53 -94 129 0
-33 73 116 129 0
24 49 -83 -130 0
-7 73 89 -131 0
9 76 105 -132 0
-12 58 84 132 0
-23 40 -114 132 0
-34 -48 114 -133 0
32 69 99 133 0
27 -44 93 -134 0
1 50 -97 -134 0
31 -51 98 -134 0
19 -43 103 -134 0
3 62 104 -134 0
22 46 -105 -134 0
-24 77 -87 134 0
-30 -53 109 134 0
11 39 90 -135 0
-20 60 96 -135 0
21 65 107 -135 0
37 -72 -111 -135 0
-9 -52 113 -135 0
7 -44 99 135 0
-9 -55 -79 -136 0
35 56 -81 -136 0
31 -67 83 -136 0
-2 58 -87 -136 0
16 -48 -91 -136 0
-31 51 -105 -136 0
-12 74 90 136 0
-14 -39 99 136 0
-1 -43 109 136 0
6 49 115 136 0
13 -73 -116 136 0
3 -50 -98 -137 0
-8 -48 -87 137 0
-8 -42 95 -138 0
22 41 -81 -139 0
-6 50 90 139 0
-16 -56 -113 139 0
-6 50 -87 -140 0
-33 -63 -88 140 0
13 -55 -86 -141 0
4 -41 -81 141 0
13 -59 91 141 0
20 -40 109 141 0
-13 66 -98 -142 0
38 74 101 -142 0
-21 57 80 142 0
17 55 86 142 0
-12 67 -114 142 0
-34 -67 115 142 0
-6 41 79 -143 0
-3 75 -89 -143 0
33 -57 -79 -144 0
-11 74 -96 -144 0
37 -59 -102 -144 0
38 44 -110 -144 0
-38 66 -111 -144 0
-21 58 90 144 0
-38 -43 -79 -145 0
33 -61 89 -145 0
10 -51 93 145 0
4 48 95 145 0
-1 72 -115 145 0
-16 40 -83 -146 0
-7 41 -93 -146 0
9 72 102 -146 0
-18 -69 -116 -146 0
33 -43 93 -147 0
-12 76 94 147 0
-36 70 -104 147 0
35 -41 108 147 0
-2 -65 81 -148 0
29 -72 79 148 0
28 49 -103 -149 0
-37 -51 111 -149 0
26 42 -112 -149 0
20 77 79 149 0
-17 52 -96 149 0
-30 -54 -98 149 0
-38 48 -99 -150 0
34 55 100 -150 0
13 -50 106 -150 0
3 41 -109 -150 0
-13 -64 -115 -150 0
-12 58 90 150 0
-35 -62 -99 150 0
27 -73 102 150 0
5 -47 83 -151 0
4 68 -85 -151 0
-11 39 86 -151 0
38 -57 81 151 0
26 63 101 151 0
16 52 -110 151 0
15 68 -81 -152 0
-2 -52 100 152 0
14 42 92 -153 0
32 49 82 153 0
2 61 -85 153 0
-19 74 91 153 0
-19 -68 -95 153 0
14 -71 -89 -154 0
16 55 -92 -154 0
15 43 -103 154 0
-14 -56 103 154 0
6 44 -104 154 0
-9 -49 -79 -155 0
9 51 79 -155 0
-8 -77 -114 -155 0
-18 42 -85 155 0
-20 56 -96 155 0
